sat
(:max-memory         18.42
 :memory             18.33
 :nlsat-arith-var    3
 :nlsat-atoms        12
 :nlsat-bool-var     1
 :nlsat-clauses      10
 :nlsat-conflicts    2
 :nlsat-propagations 21
 :nlsat-stages       7
 :num-allocs         52485
 :rlimit-count       2753
 :time               0.00
 :total-time         0.02)
